words_hard_train/4575.qaiger
aag 89 16 0 1 73
2
4
12
20
28
36
50
54
62
78
86
102
116
118
146
168
179
6 2 4
8 3 5
10 7 9
14 11 13
16 10 12
18 15 17
22 20 2
24 18 22
26 25 17
30 9 28
32 8 29
34 31 33
38 35 37
40 34 36
42 39 41
44 26 43
46 27 42
48 45 47
52 48 51
56 55 4
58 54 5
60 57 59
64 62 3
66 63 2
68 65 67
70 60 69
72 53 70
74 21 3
76 75 23
80 77 79
82 76 78
84 81 83
88 87 28
90 86 29
92 89 91
94 85 92
96 72 94
98 19 23
100 99 25
104 100 103
106 101 102
108 105 107
110 49 50
112 108 111
114 96 112
120 117 118
122 116 119
124 121 123
126 124 103
128 125 102
130 127 129
132 32 79
134 130 133
136 131 132
138 135 137
140 47 41
142 33 78
144 143 133
148 145 147
150 144 146
152 149 151
154 141 152
156 155 151
158 139 157
160 138 156
162 159 161
164 140 153
166 165 155
170 167 168
172 166 169
174 171 173
176 162 174
178 114 176
i0 2 y2[0]
i1 2 y2[1]
i2 1 x1[4]
i3 1 x1[3]
i4 2 y2[2]
i5 1 x1[5]
i6 2 y2[5]
i7 1 x1[1]
i8 1 x1[0]
i9 2 y2[3]
i10 1 x1[2]
i11 2 y2[4]
i12 2 y2[7]
i13 1 x1[7]
i14 1 x1[6]
i15 2 y2[6]
o0 bool[0]
c
simplified
  !=
    subtract
      1 x1
      << 3
        2 y2
    xor
      1
      2 y2
