words_hard_train/4575.qaiger.qdimacs
p cnf 89 220
a 6 59 10 43 73 18 27 31 0
e 1 2 3 4 5 7 8 9 11 12 13 14 15 16 17 19 20 21 22 23 24 25 26 28 29 30 32 33 34 35 36 37 38 39 40 41 42 44 45 46 47 48 49 50 51 52 53 54 55 56 57 58 60 61 62 63 64 65 66 67 68 69 70 71 72 74 75 76 77 78 79 80 81 82 83 84 85 86 87 88 89 0
-1 -2 3 0
1 -3 0
2 -3 0
1 2 4 0
-1 -4 0
-2 -4 0
3 4 5 0
-3 -5 0
-4 -5 0
5 6 7 0
-5 -7 0
-6 -7 0
-5 -6 8 0
5 -8 0
6 -8 0
7 8 9 0
-7 -9 0
-8 -9 0
-10 -1 11 0
10 -11 0
1 -11 0
-9 -11 12 0
9 -12 0
11 -12 0
12 8 13 0
-12 -13 0
-8 -13 0
4 -14 15 0
-4 -15 0
14 -15 0
-4 14 16 0
4 -16 0
-14 -16 0
15 16 17 0
-15 -17 0
-16 -17 0
17 18 19 0
-17 -19 0
-18 -19 0
-17 -18 20 0
17 -20 0
18 -20 0
19 20 21 0
-19 -21 0
-20 -21 0
-13 21 22 0
13 -22 0
-21 -22 0
13 -21 23 0
-13 -23 0
21 -23 0
22 23 24 0
-22 -24 0
-23 -24 0
-24 25 26 0
24 -26 0
-25 -26 0
27 -2 28 0
-27 -28 0
2 -28 0
-27 2 29 0
27 -29 0
-2 -29 0
28 29 30 0
-28 -30 0
-29 -30 0
-31 1 32 0
31 -32 0
-1 -32 0
31 -1 33 0
-31 -33 0
1 -33 0
32 33 34 0
-32 -34 0
-33 -34 0
-30 34 35 0
30 -35 0
-34 -35 0
26 -35 36 0
-26 -36 0
35 -36 0
10 1 37 0
-10 -37 0
-1 -37 0
37 11 38 0
-37 -38 0
-11 -38 0
38 39 40 0
-38 -40 0
-39 -40 0
-38 -39 41 0
38 -41 0
39 -41 0
40 41 42 0
-40 -42 0
-41 -42 0
43 -14 44 0
-43 -44 0
14 -44 0
-43 14 45 0
43 -45 0
-14 -45 0
44 45 46 0
-44 -46 0
-45 -46 0
42 -46 47 0
-42 -47 0
46 -47 0
-36 -47 48 0
36 -48 0
47 -48 0
9 11 49 0
-9 -49 0
-11 -49 0
49 12 50 0
-49 -50 0
-12 -50 0
-50 51 52 0
50 -52 0
-51 -52 0
50 -51 53 0
-50 -53 0
51 -53 0
52 53 54 0
-52 -54 0
-53 -54 0
24 -25 55 0
-24 -55 0
25 -55 0
-54 55 56 0
54 -56 0
-55 -56 0
-48 -56 57 0
48 -57 0
56 -57 0
58 -59 60 0
-58 -60 0
59 -60 0
-58 59 61 0
58 -61 0
-59 -61 0
60 61 62 0
-60 -62 0
-61 -62 0
-62 51 63 0
62 -63 0
-51 -63 0
62 -51 64 0
-62 -64 0
51 -64 0
63 64 65 0
-63 -65 0
-64 -65 0
-16 39 66 0
16 -66 0
-39 -66 0
-65 66 67 0
65 -67 0
-66 -67 0
65 -66 68 0
-65 -68 0
66 -68 0
67 68 69 0
-67 -69 0
-68 -69 0
23 20 70 0
-23 -70 0
-20 -70 0
16 -39 71 0
-16 -71 0
39 -71 0
71 66 72 0
-71 -72 0
-66 -72 0
72 73 74 0
-72 -74 0
-73 -74 0
-72 -73 75 0
72 -75 0
73 -75 0
74 75 76 0
-74 -76 0
-75 -76 0
70 -76 77 0
-70 -77 0
76 -77 0
77 75 78 0
-77 -78 0
-75 -78 0
69 78 79 0
-69 -79 0
-78 -79 0
-69 -78 80 0
69 -80 0
78 -80 0
79 80 81 0
-79 -81 0
-80 -81 0
-70 76 82 0
70 -82 0
-76 -82 0
82 77 83 0
-82 -83 0
-77 -83 0
83 -84 85 0
-83 -85 0
84 -85 0
-83 84 86 0
83 -86 0
-84 -86 0
85 86 87 0
-85 -87 0
-86 -87 0
-81 -87 88 0
81 -88 0
87 -88 0
-57 -88 89 0
57 -89 0
88 -89 0
-89 0
